clingo version 5.4.0
Reading from merger/Tarik/merge.lp ...
Solving...
Answer: 1
occurs(object(robot,1),action(move,(-1,0)),1). occurs(object(robot,1),action(move,(-1,0)),2). occurs(object(robot,2),action(move,(1,0)),1). occurs(object(robot,2),action(move,(1,0)),2). occurs(object(robot,2),action(move,(1,0)),3). occurs(object(robot,2),action(move,(1,0)),4). occurs(object(robot,2),action(move,(1,0)),5). occurs(object(robot,2),action(move,(1,0)),6). occurs(object(robot,1),action(move,(1,0)),3). occurs(object(robot,1),action(move,(1,0)),4). occurs(object(robot,1),action(move,(0,1)),5). occurs(object(robot,1),action(move,(0,1)),6). occurs(object(robot,1),action(move,(0,1)),7). occurs(object(robot,2),action(move,(0,1)),7). occurs(object(robot,2),action(move,(0,1)),8). occurs(object(robot,1),action(move,(0,1)),8). occurs(object(robot,1),action(move,(0,0)),9). occurs(object(robot,2),action(move,(0,1)),9). occurs(object(robot,2),action(move,(-1,0)),10). occurs(object(robot,1),action(move,(0,-1)),10). occurs(object(robot,1),action(move,(0,-1)),11). occurs(object(robot,2),action(move,(0,0)),11). occurs(object(robot,2),action(move,(1,0)),12). occurs(object(robot,1),action(move,(0,-1)),12). occurs(object(robot,1),action(move,(0,-1)),13). occurs(object(robot,2),action(move,(-1,0)),13). occurs(object(robot,2),action(move,(1,0)),14). occurs(object(robot,1),action(move,(-1,0)),14). occurs(object(robot,1),action(move,(-1,0)),15). occurs(object(robot,2),action(move,(0,-1)),15). occurs(object(robot,2),action(move,(0,-1)),16). occurs(object(robot,1),action(move,(-1,0)),16). occurs(object(robot,1),action(move,(-1,0)),17). occurs(object(robot,2),action(move,(0,-1)),17). occurs(object(robot,2),action(move,(0,0)),18). occurs(object(robot,1),action(move,(-1,0)),18). occurs(object(robot,1),action(move,(-1,0)),19).
Optimization: 52
Answer: 2
occurs(object(robot,1),action(move,(-1,0)),1). occurs(object(robot,1),action(move,(-1,0)),2). occurs(object(robot,2),action(move,(1,0)),1). occurs(object(robot,2),action(move,(1,0)),2). occurs(object(robot,2),action(move,(1,0)),3). occurs(object(robot,2),action(move,(1,0)),4). occurs(object(robot,2),action(move,(1,0)),5). occurs(object(robot,2),action(move,(1,0)),6). occurs(object(robot,1),action(move,(1,0)),3). occurs(object(robot,1),action(move,(1,0)),4). occurs(object(robot,1),action(move,(0,1)),5). occurs(object(robot,1),action(move,(0,1)),6). occurs(object(robot,1),action(move,(0,1)),7). occurs(object(robot,2),action(move,(0,1)),7). occurs(object(robot,2),action(move,(0,1)),8). occurs(object(robot,1),action(move,(0,1)),8). occurs(object(robot,1),action(move,(0,0)),9). occurs(object(robot,2),action(move,(0,1)),9). occurs(object(robot,2),action(move,(-1,0)),10). occurs(object(robot,1),action(move,(0,-1)),10). occurs(object(robot,1),action(move,(0,-1)),11). occurs(object(robot,2),action(move,(0,0)),11). occurs(object(robot,2),action(move,(1,0)),12). occurs(object(robot,1),action(move,(0,-1)),12). occurs(object(robot,1),action(move,(0,-1)),13). occurs(object(robot,2),action(move,(-1,0)),13). occurs(object(robot,2),action(move,(1,0)),14). occurs(object(robot,1),action(move,(-1,0)),14). occurs(object(robot,1),action(move,(-1,0)),15). occurs(object(robot,2),action(move,(0,-1)),15). occurs(object(robot,2),action(move,(0,-1)),16). occurs(object(robot,1),action(move,(-1,0)),16). occurs(object(robot,1),action(move,(-1,0)),17). occurs(object(robot,2),action(move,(0,-1)),18). occurs(object(robot,1),action(move,(-1,0)),18). occurs(object(robot,1),action(move,(-1,0)),19).
Optimization: 37
Answer: 3
occurs(object(robot,1),action(move,(-1,0)),1). occurs(object(robot,1),action(move,(-1,0)),2). occurs(object(robot,2),action(move,(1,0)),1). occurs(object(robot,2),action(move,(1,0)),2). occurs(object(robot,2),action(move,(1,0)),3). occurs(object(robot,2),action(move,(1,0)),4). occurs(object(robot,2),action(move,(1,0)),5). occurs(object(robot,2),action(move,(1,0)),6). occurs(object(robot,1),action(move,(1,0)),3). occurs(object(robot,1),action(move,(1,0)),4). occurs(object(robot,1),action(move,(0,1)),5). occurs(object(robot,1),action(move,(0,1)),6). occurs(object(robot,1),action(move,(0,1)),7). occurs(object(robot,2),action(move,(0,1)),7). occurs(object(robot,2),action(move,(0,1)),8). occurs(object(robot,1),action(move,(0,1)),8). occurs(object(robot,2),action(move,(0,1)),9). occurs(object(robot,2),action(move,(-1,0)),10). occurs(object(robot,1),action(move,(0,-1)),10). occurs(object(robot,1),action(move,(0,-1)),11). occurs(object(robot,2),action(move,(0,0)),11). occurs(object(robot,2),action(move,(1,0)),12). occurs(object(robot,1),action(move,(0,-1)),12). occurs(object(robot,1),action(move,(0,-1)),13). occurs(object(robot,2),action(move,(-1,0)),13). occurs(object(robot,2),action(move,(1,0)),14). occurs(object(robot,1),action(move,(-1,0)),14). occurs(object(robot,1),action(move,(-1,0)),15). occurs(object(robot,2),action(move,(0,-1)),15). occurs(object(robot,2),action(move,(0,-1)),16). occurs(object(robot,1),action(move,(-1,0)),16). occurs(object(robot,1),action(move,(-1,0)),17). occurs(object(robot,2),action(move,(0,-1)),17). occurs(object(robot,2),action(move,(0,1)),18). occurs(object(robot,1),action(move,(-1,0)),18). occurs(object(robot,1),action(move,(-1,0)),19). occurs(object(robot,2),action(move,(0,-1)),19).
Optimization: 36
Answer: 4
occurs(object(robot,1),action(move,(-1,0)),1). occurs(object(robot,1),action(move,(-1,0)),2). occurs(object(robot,2),action(move,(1,0)),1). occurs(object(robot,2),action(move,(1,0)),2). occurs(object(robot,2),action(move,(1,0)),3). occurs(object(robot,2),action(move,(1,0)),4). occurs(object(robot,2),action(move,(1,0)),5). occurs(object(robot,2),action(move,(1,0)),6). occurs(object(robot,1),action(move,(1,0)),3). occurs(object(robot,1),action(move,(1,0)),4). occurs(object(robot,1),action(move,(0,1)),5). occurs(object(robot,1),action(move,(0,1)),6). occurs(object(robot,1),action(move,(0,1)),7). occurs(object(robot,2),action(move,(0,1)),7). occurs(object(robot,2),action(move,(0,1)),8). occurs(object(robot,1),action(move,(0,1)),8). occurs(object(robot,2),action(move,(0,1)),9). occurs(object(robot,2),action(move,(-1,0)),10). occurs(object(robot,1),action(move,(0,-1)),10). occurs(object(robot,1),action(move,(0,-1)),11). occurs(object(robot,2),action(move,(0,0)),11). occurs(object(robot,2),action(move,(1,0)),12). occurs(object(robot,1),action(move,(0,-1)),12). occurs(object(robot,1),action(move,(0,-1)),13). occurs(object(robot,2),action(move,(-1,0)),13). occurs(object(robot,2),action(move,(1,0)),14). occurs(object(robot,1),action(move,(-1,0)),14). occurs(object(robot,1),action(move,(-1,0)),15). occurs(object(robot,2),action(move,(0,-1)),15). occurs(object(robot,2),action(move,(0,-1)),16). occurs(object(robot,1),action(move,(-1,0)),16). occurs(object(robot,1),action(move,(-1,0)),17). occurs(object(robot,2),action(move,(0,0)),18). occurs(object(robot,1),action(move,(-1,0)),18). occurs(object(robot,1),action(move,(-1,0)),19). occurs(object(robot,2),action(move,(0,-1)),19).
Optimization: 21
OPTIMUM FOUND

Models       : 4
  Optimum    : yes
Optimization : 21
Calls        : 1
Time         : 0.379s (Solving: 0.27s 1st Model: 0.08s Unsat: 0.19s)
CPU Time     : 0.352s
